TCS_Benchmarks/redos_fix/regexlib2_output_distinct_2002_2001_0_0.smt2
(set-logic QF_S)
(declare-const x String)
(assert (str.in.re x (re.inter  (re.++ (re.* (re.union (re.range "\u{00}" "\u{09}") (re.range "\u{0b}" "\u{0c}") (re.range "\u{0e}" "\u{84}") (re.range "\u{86}" "\u{ff}")) ) (re.* (re.union (re.range "\u{00}" "\u{09}") (re.range "\u{0b}" "\u{0c}") (re.range "\u{0e}" "\u{84}") (re.range "\u{86}" "\u{ff}")) ))  (re.++ (re.* (re.union (re.range "\u{00}" "\u{09}") (re.range "\u{0b}" "\u{0c}") (re.range "\u{0e}" "\u{84}") (re.range "\u{86}" "\u{ff}")) ) (re.++  (re.++  (re.union  (str.to.re "\u{50}")  (str.to.re "\u{70}")) (re.++  (str.to.re "\u{72}") (re.++  (str.to.re "\u{65}") (re.++  (re.union  (str.to.re "\u{53}") (re.union  (str.to.re "\u{73}")  (str.to.re "\u{24}"))) (re.++  (str.to.re "\u{63}") (re.++  (str.to.re "\u{72}") (re.++  (re.union  (str.to.re "\u{31}") (re.union  (str.to.re "\u{69}")  (str.to.re "\u{49}"))) (re.++  (str.to.re "\u{70}")  (str.to.re "\u{74}"))))))))) (re.* (re.union (re.range "\u{00}" "\u{09}") (re.range "\u{0b}" "\u{0c}") (re.range "\u{0e}" "\u{84}") (re.range "\u{86}" "\u{ff}")) ))) )))
(check-sat)
(get-model)