TCS_Benchmarks/redos_fix/regexlib2_output_distinct_2002_2001_0_0.txt
(.*)(.*)
(.*)([Pp]re[Ss\$]cr[1iI]pt)(.*)